c SAT Generator for power-law distributed variable frequencies
c -g u -v 20 -c 91 -k 3 -p 2.750000 -b 3.200000 -f /home/schmidt/Devel/ni-kop-sat/data/ensemble/ruf20-91/ruf20-91-681 -u 1 -U 1 -s 3556539203
p cnf 20 91
3 15 20 0
1 10 -15 0
3 7 -17 0
5 7 -8 0
-1 14 -16 0
-2 -4 -15 0
14 16 -19 0
-7 10 17 0
-10 -11 17 0
4 -12 -13 0
-2 5 -15 0
-6 8 19 0
-4 13 14 0
12 13 16 0
2 -9 -12 0
12 14 15 0
-3 5 11 0
2 -9 16 0
1 5 -12 0
-2 -3 6 0
-2 8 -16 0
4 -7 -15 0
-2 10 16 0
-4 -5 -18 0
2 10 -12 0
-6 8 -13 0
-3 14 16 0
5 9 -16 0
-11 15 18 0
11 16 18 0
5 -15 -20 0
-15 -16 -19 0
3 4 7 0
-2 5 -7 0
-7 10 20 0
-1 3 19 0
4 -7 16 0
2 11 19 0
-5 19 20 0
4 5 19 0
6 -8 10 0
-12 15 -19 0
7 12 18 0
-2 -13 17 0
-8 15 19 0
-4 14 17 0
5 13 -18 0
4 -15 -17 0
-2 12 -17 0
-6 -8 -14 0
1 9 15 0
-6 15 -19 0
-4 -8 -17 0
-8 -10 18 0
2 12 18 0
6 9 -16 0
4 12 -20 0
1 -12 19 0
-16 17 -19 0
-1 -2 -16 0
4 5 -20 0
-5 -12 -14 0
6 -14 -17 0
-3 16 -19 0
1 4 -11 0
-4 -9 -12 0
3 -7 8 0
-3 -8 16 0
-10 -17 -20 0
-1 -18 20 0
-1 11 -13 0
12 16 17 0
1 9 -19 0
-9 15 18 0
-11 16 -18 0
9 -19 20 0
1 13 17 0
-5 -8 -19 0
-3 4 -15 0
9 10 -20 0
11 -15 18 0
4 -11 19 0
3 -11 -18 0
5 12 -14 0
-15 -18 -20 0
-8 10 11 0
10 12 -18 0
-2 -11 -17 0
-7 -12 -17 0
-8 -9 18 0
-5 6 20 0
